results/x-10M/X-n162-k11.vrp_seed-1.out
14138	10814
