results/x-10M/X-n162-k11.vrp_seed-1.vrp.sol
Route #1: 15 139 126 138 133 107 122 84 160 85 121 147 159 135 72
Route #2: 127 17 149 89 14 1 55 60 21 9 27 117 97 77 161
Route #3: 74 81 120 5 16 32 57 131 37 71 13 6 49 24 23
Route #4: 155 92 125 93 132 87 4 101 151 146 39 137 108 158 91 136
Route #5: 150 90 145 68 58 38 73 11 48 26 28 152 45 50
Route #6: 79 22 19 18 64 12 70 113 63 104 83 98 47 25
Route #7: 54 78 20 67 62 114 95 129 96 88 106 31 140 154 111 80
Route #8: 53 86 130 99 35 36 94 100 66 56 123 43 142 102 116 52
Route #9: 29 10 105 144 119 141 115 156 59
Route #10: 34 7 44 75 33 3 51 42 65 69 46 61 41 76 8
Route #11: 103 40 112 157 30 118 82 2 109 148 134 124 128 110 153 143
Cost 14138.000000